(set-info :origin "SVCOMP13 benchmarks generated by Arie Gurfinkel")
(set-info :status sat)
(set-logic HORN)
(declare-fun cp-rel-bb1.i.i (Real Real Real) Bool)
(declare-fun cp-rel-entry () Bool)
(declare-fun cp-rel-bb2.i.i29.i.i () Bool)
(assert |cp-rel-entry|)
(assert (forall ((?A Real) (?B Real) (?C Real) (?D Bool) )(let (($x137878 (and |cp-rel-entry| (<= ?C 1.0) (>= ?B 0.0) (<= ?B 0.0) (>= ?A 0.0) (<= ?A 0.0) (= ?D true) (>= ?C 1.0))))
(=> $x137878 (|cp-rel-bb1.i.i| ?A ?B ?C))))
)
(assert (forall ((?A Real) (?B Real) (?C Real) (?D Real) (?E Real) (?F Real) (?G Bool) (?H Bool) (?I Bool) (?J Bool) (?K Bool) (?L Bool) (?M Real) (?N Real) (?O Bool) (?P Bool) (?Q Bool) (?R Bool) (?S Bool) (?T Bool) (?U Real) (?V Real) (?W Bool) (?X Bool) (?Y Bool) (?Z Bool) (?A1 Bool) (?B1 Bool) (?C1 Bool) (?D1 Bool) (?E1 Bool) (?F1 Bool) (?G1 Bool) (?H1 Bool) (?I1 Bool) (?J1 Bool) (?K1 Real) (?L1 Real) (?M1 Real) (?N1 Bool) (?O1 Bool) (?P1 Real) (?Q1 Bool) (?R1 Bool) (?S1 Real) (?T1 Bool) (?U1 Real) (?V1 Real) (?W1 Bool) (?X1 Bool) (?Y1 Real) (?Z1 Bool) (?A2 Bool) (?B2 Bool) (?C2 Bool) (?D2 Bool) )(let (($x364524 (|cp-rel-bb1.i.i| ?D ?E ?F)))
(let (($x831389 (= ?R1 (and ?D2 ?C2))))
(let (($x48164 (or (not ?G) (and ?H ?I (not ?J)))))
(let (($x238319 (or (not ?G) ?I)))
(let (($x866535 (not ?K)))
(let (($x298873 (or $x866535 (and ?G ?L (<= ?M ?N) (>= ?M ?N)) (and ?H ?O ?J (<= ?M ?C) (>= ?M ?C)))))
(let (($x741760 (or $x866535 (and ?L (not ?O)) (and ?O (not ?L)))))
(let (($x394243 (or (not ?P) (and ?K ?Q (not ?R)))))
(let (($x553819 (or (not ?P) ?Q)))
(let (($x811286 (not ?S)))
(let (($x359894 (or $x811286 (and ?P ?T (<= ?U ?V) (>= ?U ?V)) (and ?K ?W ?R (<= ?U ?B) (>= ?U ?B)))))
(let (($x348249 (or $x811286 (and ?T (not ?W)) (and ?W (not ?T)))))
(let (($x700362 (or (not ?X) (and ?S ?Y ?Z))))
(let (($x344966 (or (not ?X) ?Y)))
(let (($x846512 (or (not ?A1) (and ?S ?B1 (not ?Z)))))
(let (($x846960 (or (not ?A1) ?B1)))
(let (($x622121 (or (not ?C1) (and ?X ?D1 ?E1))))
(let (($x12842 (or (not ?C1) ?D1)))
(let (($x649498 (or (not ?F1) (and ?A1 ?G1 ?H1))))
(let (($x26783 (or (not ?F1) ?G1)))
(let (($x833416 (>= ?K1 ?P1)))
(let (($x468053 (<= ?K1 ?P1)))
(let (($x392107 (and ?A1 ?Q1 (not ?H1) $x468053 $x833416 (<= ?L1 0.0) (>= ?L1 0.0))))
(let (($x209405 (>= ?K1 ?M)))
(let (($x13901 (<= ?K1 ?M)))
(let (($x548434 (not ?I1)))
(let (($x158060 (or $x548434 (and ?C1 ?J1 $x13901 $x209405 (<= ?L1 ?M1) (>= ?L1 ?M1)) (and ?X ?N1 (not ?E1) $x13901 $x209405 (<= ?L1 ?A) (>= ?L1 ?A)) (and ?F1 ?O1 $x468053 $x833416 (<= ?L1 ?A) (>= ?L1 ?A)) $x392107)))
(let (($x508277 (or $x548434 (and ?J1 (not ?N1) (not ?O1) (not ?Q1)) (and ?N1 (not ?J1) (not ?O1) (not ?Q1)) (and ?O1 (not ?J1) (not ?N1) (not ?Q1)) (and ?Q1 (not ?J1) (not ?N1) (not ?O1)))))
(let (($x61857 (= ?I1 true)))
(let (($x853247 (= ?J (= ?S1 0.0))))
(let (($x488890 (= ?U1 (ite ?T1 1.0 0.0))))
(let (($x197338 (= ?R (= ?V1 0.0))))
(let (($x563306 (= ?V (ite ?W1 1.0 0.0))))
(let (($x78638 (= ?E1 (not (<= ?M 1.0)))))
(let (($x178339 (= ?X1 (not (<= ?M 0.0)))))
(let (($x129787 (= ?Y1 (+ (~ 1.0) ?M))))
(let (($x166420 (= ?P1 (ite ?X1 ?Y1 ?M))))
(let (($x819409 (= ?U 0.0)))
(let (($x338865 (= ?H1 $x819409)))
(let (($x300331 (= ?Z1 $x819409)))
(let (($x552460 (= ?A2 $x819409)))
(let (($x450950 (= ?B2 (= ?K1 2.0))))
(let (($x363422 (= ?C2 (= ?L1 0.0))))
(let (($x349366 (= ?D2 (and ?B2 ?A2))))
(let (($x905343 (and (|cp-rel-bb1.i.i| ?A ?B ?C) $x349366 $x363422 $x450950 $x552460 (= ?M1 (ite ?Z1 1.0 ?A)) $x300331 $x338865 $x166420 $x129787 $x178339 $x78638 (= ?Z (= ?A 0.0)) $x563306 (= ?W1 (= ?B 0.0)) $x197338 (= ?N (+ ?U1 ?C)) $x488890 (= ?T1 (not (<= 2.0 ?C))) $x853247 (>= ?F ?K1) (<= ?F ?K1) (>= ?E ?U) (<= ?E ?U) (>= ?D ?L1) (<= ?D ?L1) (not (= ?R1 true)) $x61857 $x508277 $x158060 $x26783 $x649498 $x12842 $x622121 $x846960 $x846512 $x344966 $x700362 $x348249 $x359894 $x553819 $x394243 $x741760 $x298873 $x238319 $x48164 $x831389)))
(=> $x905343 $x364524)))))))))))))))))))))))))))))))))))))))))))))))
)
(assert (forall ((?A Real) (?B Real) (?C Real) (?D Bool) (?E Bool) (?F Bool) (?G Bool) (?H Bool) (?I Bool) (?J Real) (?K Real) (?L Bool) (?M Bool) (?N Bool) (?O Bool) (?P Bool) (?Q Bool) (?R Real) (?S Real) (?T Bool) (?U Bool) (?V Bool) (?W Bool) (?X Bool) (?Y Bool) (?Z Bool) (?A1 Bool) (?B1 Bool) (?C1 Bool) (?D1 Bool) (?E1 Bool) (?F1 Bool) (?G1 Bool) (?H1 Real) (?I1 Real) (?J1 Real) (?K1 Bool) (?L1 Bool) (?M1 Real) (?N1 Bool) (?O1 Bool) (?P1 Real) (?Q1 Bool) (?R1 Real) (?S1 Real) (?T1 Bool) (?U1 Bool) (?V1 Real) (?W1 Bool) (?X1 Bool) (?Y1 Bool) (?Z1 Bool) (?A2 Bool) )(let (($x831389 (= ?O1 (and ?A2 ?Z1))))
(let (($x48164 (or (not ?D) (and ?E ?F (not ?G)))))
(let (($x238319 (or (not ?D) ?F)))
(let (($x866535 (not ?H)))
(let (($x919934 (or $x866535 (and ?D ?I (<= ?J ?K) (>= ?J ?K)) (and ?E ?L ?G (<= ?J ?C) (>= ?J ?C)))))
(let (($x741760 (or $x866535 (and ?I (not ?L)) (and ?L (not ?I)))))
(let (($x394243 (or (not ?M) (and ?H ?N (not ?O)))))
(let (($x553819 (or (not ?M) ?N)))
(let (($x811286 (not ?P)))
(let (($x59250 (or $x811286 (and ?M ?Q (<= ?R ?S) (>= ?R ?S)) (and ?H ?T ?O (<= ?R ?B) (>= ?R ?B)))))
(let (($x348249 (or $x811286 (and ?Q (not ?T)) (and ?T (not ?Q)))))
(let (($x700362 (or (not ?U) (and ?P ?V ?W))))
(let (($x344966 (or (not ?U) ?V)))
(let (($x846512 (or (not ?X) (and ?P ?Y (not ?W)))))
(let (($x846960 (or (not ?X) ?Y)))
(let (($x622121 (or (not ?Z) (and ?U ?A1 ?B1))))
(let (($x12842 (or (not ?Z) ?A1)))
(let (($x649498 (or (not ?C1) (and ?X ?D1 ?E1))))
(let (($x26783 (or (not ?C1) ?D1)))
(let (($x833416 (>= ?H1 ?M1)))
(let (($x468053 (<= ?H1 ?M1)))
(let (($x392107 (and ?X ?N1 (not ?E1) $x468053 $x833416 (<= ?I1 0.0) (>= ?I1 0.0))))
(let (($x209405 (>= ?H1 ?J)))
(let (($x13901 (<= ?H1 ?J)))
(let (($x548434 (not ?F1)))
(let (($x164928 (or $x548434 (and ?Z ?G1 $x13901 $x209405 (<= ?I1 ?J1) (>= ?I1 ?J1)) (and ?U ?K1 (not ?B1) $x13901 $x209405 (<= ?I1 ?A) (>= ?I1 ?A)) (and ?C1 ?L1 $x468053 $x833416 (<= ?I1 ?A) (>= ?I1 ?A)) $x392107)))
(let (($x508277 (or $x548434 (and ?G1 (not ?K1) (not ?L1) (not ?N1)) (and ?K1 (not ?G1) (not ?L1) (not ?N1)) (and ?L1 (not ?G1) (not ?K1) (not ?N1)) (and ?N1 (not ?G1) (not ?K1) (not ?L1)))))
(let (($x61857 (= ?F1 true)))
(let (($x520422 (= ?O1 true)))
(let (($x853247 (= ?G (= ?P1 0.0))))
(let (($x488890 (= ?R1 (ite ?Q1 1.0 0.0))))
(let (($x197338 (= ?O (= ?S1 0.0))))
(let (($x563306 (= ?S (ite ?T1 1.0 0.0))))
(let (($x78638 (= ?B1 (not (<= ?J 1.0)))))
(let (($x178339 (= ?U1 (not (<= ?J 0.0)))))
(let (($x129787 (= ?V1 (+ (~ 1.0) ?J))))
(let (($x166420 (= ?M1 (ite ?U1 ?V1 ?J))))
(let (($x819409 (= ?R 0.0)))
(let (($x338865 (= ?E1 $x819409)))
(let (($x300331 (= ?W1 $x819409)))
(let (($x552460 (= ?X1 $x819409)))
(let (($x450950 (= ?Y1 (= ?H1 2.0))))
(let (($x363422 (= ?Z1 (= ?I1 0.0))))
(let (($x349366 (= ?A2 (and ?Y1 ?X1))))
(let (($x364524 (|cp-rel-bb1.i.i| ?A ?B ?C)))
(let (($x243698 (and $x364524 $x349366 $x363422 $x450950 $x552460 (= ?J1 (ite ?W1 1.0 ?A)) $x300331 $x338865 $x166420 $x129787 $x178339 $x78638 (= ?W (= ?A 0.0)) $x563306 (= ?T1 (= ?B 0.0)) $x197338 (= ?K (+ ?R1 ?C)) $x488890 (= ?Q1 (not (<= 2.0 ?C))) $x853247 $x520422 $x61857 $x508277 $x164928 $x26783 $x649498 $x12842 $x622121 $x846960 $x846512 $x344966 $x700362 $x348249 $x59250 $x553819 $x394243 $x741760 $x919934 $x238319 $x48164 $x831389)))
(=> $x243698 |cp-rel-bb2.i.i29.i.i|))))))))))))))))))))))))))))))))))))))))))))))))
)
(assert (not cp-rel-bb2.i.i29.i.i))
(check-sat)
